# input script for topotools tutorial step 2a
units real
boundary p p p
atom_style full

read_data data.64xmethane_from_restart

# interaction styles
pair_style lj/cut/coul/cut 12.0
bond_style harmonic
angle_style harmonic
#dihedral_style opls
pair_modify mix geometric tail yes

# OPLS considers 1-4 interactions with 50%. 
special_bonds lj/coul 0.0 0.0 0.5

# force field parameters
pair_coeff   1 1  0.066 3.5      # CT
pair_coeff   2 2  0.03  2.5      # HC
# the remaining parameters are inferred from mixing.
bond_coeff   1   340.0   1.09    # CT-HC
angle_coeff  1    33.0 107.8     # HC-CT-HC

# equilibration. real methane freezes at 91K and boils at 112K
# so we hope the force field has it as a liquid at 100K.
timestep 0.25
reset_timestep 0
neighbor 1.5 bin 
neigh_modify every 10 delay 20 check yes
thermo 400
thermo_style custom step temp pe ke press vol density

fix 2 all nvt temp 100.0 100.0 100.0

# equilibration trajectory

# dump 1 all dcd 400 64xmethane-nvt.dcd
# dump 1 all dcd 400 64xmethane-nvt.dcd_unwrapped
# dump 1 all xtc 400 64xmethane-nvt.xtc
dump 1 all xtc 400 64xmethane-nvt_unwrapped.xtc
# dump 1 all xyz 400 64xmethane-nvt.xyz
# dump 1 all atom 400 64xmethane-nvt.atom
# dump 1 all atom 400 64xmethane-nvt.atom_unscaled_image_flags 
# dump 1 all custom 400 64xmethane-nvt.lammpstrj id type x y z vx vy vz fx fy fz ix iy iz
# dump_modify 1 image yes scale no
dump_modify 1 unwrap yes

# output log
log log.64xmethane-nvt-thermo_style_custom

# 20.0ps
run 80000

# keep a restart of this, too.
write_restart 64xmethane-nvt.restart
# this still has not been relaxed for pressure,
# but it should be pretty close.

